p cnf 32 87
a 9 25 0
e 1 2 3 4 5 6 7 8 10 11 12 13 14 15 16 17 18 19 20 21 22 23 24 26 27 28 29 30 31 32 0
5 3 0
5 4 0
-3 -4 -5 0
-7 -6 0
-7 -4 0
6 4 7 0
-5 -7 -8 0
5 7 -8 0
-5 7 8 0
5 -7 8 0
-8 -9 0
8 -9 0
9 4 -10 0
-9 -4 -10 0
9 -4 10 0
-9 4 10 0
-2 10 -11 0
2 -10 -11 0
-2 -10 11 0
2 10 11 0
-12 -1 0
-12 -11 0
1 11 12 0
15 -13 0
15 14 0
13 -14 -15 0
-16 1 0
-16 -15 0
-1 15 16 0
-17 -16 0
-17 10 0
16 -10 17 0
19 -18 0
19 5 0
18 -5 -19 0
-20 -17 0
-20 -19 0
17 19 20 0
21 12 0
21 20 0
-12 -20 -21 0
22 -6 0
22 -3 0
6 3 -22 0
22 7 -23 0
-22 -7 -23 0
22 -7 23 0
-22 7 23 0
24 -23 0
24 11 0
23 -11 -24 0
21 -24 -25 0
-21 24 -25 0
21 24 25 0
-21 -24 25 0
-6 5 -26 0
6 -5 -26 0
-6 -5 26 0
6 5 26 0
27 1 0
27 -26 0
-1 26 -27 0
-23 -27 -28 0
23 27 -28 0
-23 27 28 0
23 -27 28 0
-29 -28 0
-29 8 0
28 -8 29 0
30 -14 0
30 1 0
14 -1 -30 0
-31 29 0
-31 -30 0
-29 30 31 0
32 25 0
32 31 0
-25 -31 -32 0
12 15 19 0
6 5 24 0
21 27 -28 30 3 -2 24 0
16 -25 -9 21 10 17 0
-27 -10 6 5 -15 -24 0
14 29 15 -25 28 -24 0
13 17 9 4 7 -27 -26 0
26 14 16 -9 -30 -18 0
32 0
